c Generated map
c Size: 12 * 12, weights in range: 1 to 10, walls: True, with ratio 0.05
c dim 3 of 5
c
p sp 144 239
c graph contains 144 nodes and 239 arcs
c
a 1 13 9
a 13 1 9
a 1 2 5
a 2 1 5
a 2 3 1
a 3 2 1
a 3 15 2
a 15 3 2
a 3 4 9
a 4 3 9
a 4 16 4
a 16 4 4
a 4 5 4
a 5 4 4
a 5 17 8
a 17 5 8
a 5 6 8
a 6 5 8
a 6 7 1
a 7 6 1
a 7 19 8
a 19 7 8
a 7 8 4
a 8 7 4
a 8 20 1
a 20 8 1
a 8 9 9
a 9 8 9
a 9 21 8
a 21 9 8
a 9 10 5
a 10 9 5
a 10 22 3
a 22 10 3
a 10 11 10
a 11 10 10
a 11 23 1
a 23 11 1
a 11 12 4
a 12 11 4
a 12 24 9
a 24 12 9
a 13 25 5
a 25 13 5
a 15 27 6
a 27 15 6
a 15 16 5
a 16 15 5
a 16 28 7
a 28 16 7
a 16 17 5
a 17 16 5
a 17 29 5
a 29 17 5
a 19 31 8
a 31 19 8
a 19 20 10
a 20 19 10
a 20 32 2
a 32 20 2
a 20 21 9
a 21 20 9
a 21 33 1
a 33 21 1
a 21 22 2
a 22 21 2
a 22 34 2
a 34 22 2
a 22 23 2
a 23 22 2
a 23 35 10
a 35 23 10
a 23 24 8
a 24 23 8
a 24 36 10
a 36 24 10
a 25 37 5
a 37 25 5
a 27 39 5
a 39 27 5
a 27 28 2
a 28 27 2
a 28 40 2
a 40 28 2
a 28 29 2
a 29 28 2
a 29 41 6
a 41 29 6
a 29 30 3
a 30 29 3
a 30 42 9
a 42 30 9
a 30 31 9
a 31 30 9
a 31 43 3
a 43 31 3
a 31 32 2
a 32 31 2
a 32 44 3
a 44 32 3
a 32 33 3
a 33 32 3
a 33 45 8
a 45 33 8
a 33 34 8
a 34 33 8
a 34 46 3
a 46 34 3
a 34 35 10
a 35 34 10
a 35 47 1
a 47 35 1
a 35 36 6
a 36 35 6
a 36 48 7
a 48 36 7
a 37 49 7
a 49 37 7
a 37 38 1
a 38 37 1
a 38 50 1
a 50 38 1
a 38 39 8
a 39 38 8
a 39 51 2
a 51 39 2
a 39 40 5
a 40 39 5
a 40 52 2
a 52 40 2
a 40 41 3
a 41 40 3
a 41 53 3
a 53 41 3
a 41 42 4
a 42 41 4
a 42 54 1
a 54 42 1
a 42 43 2
a 43 42 2
a 43 55 4
a 55 43 4
a 43 44 3
a 44 43 3
a 44 56 6
a 56 44 6
a 44 45 3
a 45 44 3
a 45 46 4
a 46 45 4
a 46 58 10
a 58 46 10
a 46 47 6
a 47 46 6
a 47 59 8
a 59 47 8
a 47 48 6
a 48 47 6
a 48 60 3
a 60 48 3
a 49 61 6
a 61 49 6
a 49 50 8
a 50 49 8
a 50 62 8
a 62 50 8
a 50 51 2
a 51 50 2
a 51 63 3
a 63 51 3
a 51 52 2
a 52 51 2
a 52 64 6
a 64 52 6
a 52 53 7
a 53 52 7
a 53 65 3
a 65 53 3
a 53 54 1
a 54 53 1
a 54 66 3
a 66 54 3
a 54 55 9
a 55 54 9
a 55 67 2
a 67 55 2
a 55 56 10
a 56 55 10
a 56 68 5
a 68 56 5
a 58 59 7
a 59 58 7
a 59 60 2
a 60 59 2
a 60 72 5
a 72 60 5
a 61 73 4
a 73 61 4
a 61 62 1
a 62 61 1
a 62 74 2
a 74 62 2
a 62 63 4
a 63 62 4
a 63 75 9
a 75 63 9
a 63 64 8
a 64 63 8
a 64 76 4
a 76 64 4
a 64 65 9
a 65 64 9
a 65 77 1
a 77 65 1
a 65 66 9
a 66 65 9
a 66 78 8
a 78 66 8
a 66 67 6
a 67 66 6
a 67 79 4
a 79 67 4
a 67 68 5
a 68 67 5
a 68 80 6
a 80 68 6
a 68 69 1
a 69 68 1
a 69 81 5
a 81 69 5
a 72 84 3
a 84 72 3
a 73 85 8
a 85 73 8
a 73 74 7
a 74 73 7
a 74 86 2
a 86 74 2
a 74 75 6
a 75 74 6
a 75 87 6
a 87 75 6
a 75 76 4
a 76 75 4
a 76 88 1
a 88 76 1
a 76 77 8
a 77 76 8
a 77 89 8
a 89 77 8
a 77 78 8
a 78 77 8
a 78 90 2
a 90 78 2
a 78 79 6
a 79 78 6
a 79 91 2
a 91 79 2
a 79 80 2
a 80 79 2
a 80 92 8
a 92 80 8
a 80 81 2
a 81 80 2
a 81 93 8
a 93 81 8
a 81 82 3
a 82 81 3
a 82 94 3
a 94 82 3
a 82 83 5
a 83 82 5
a 83 95 3
a 95 83 3
a 83 84 8
a 84 83 8
a 84 96 1
a 96 84 1
a 85 97 7
a 97 85 7
a 85 86 7
a 86 85 7
a 86 98 10
a 98 86 10
a 86 87 7
a 87 86 7
a 87 99 5
a 99 87 5
a 87 88 2
a 88 87 2
a 88 100 1
a 100 88 1
a 88 89 2
a 89 88 2
a 89 101 1
a 101 89 1
a 89 90 1
a 90 89 1
a 90 102 1
a 102 90 1
a 90 91 10
a 91 90 10
a 91 103 5
a 103 91 5
a 91 92 1
a 92 91 1
a 92 104 5
a 104 92 5
a 92 93 4
a 93 92 4
a 93 105 9
a 105 93 9
a 93 94 9
a 94 93 9
a 94 106 5
a 106 94 5
a 94 95 3
a 95 94 3
a 95 107 10
a 107 95 10
a 95 96 2
a 96 95 2
a 96 108 10
a 108 96 10
a 97 109 1
a 109 97 1
a 97 98 3
a 98 97 3
a 98 110 4
a 110 98 4
a 98 99 9
a 99 98 9
a 99 111 4
a 111 99 4
a 99 100 10
a 100 99 10
a 100 112 5
a 112 100 5
a 100 101 5
a 101 100 5
a 101 113 3
a 113 101 3
a 101 102 7
a 102 101 7
a 102 114 6
a 114 102 6
a 102 103 2
a 103 102 2
a 103 115 3
a 115 103 3
a 103 104 3
a 104 103 3
a 104 116 9
a 116 104 9
a 104 105 4
a 105 104 4
a 105 117 5
a 117 105 5
a 105 106 4
a 106 105 4
a 106 118 7
a 118 106 7
a 106 107 9
a 107 106 9
a 107 119 8
a 119 107 8
a 107 108 8
a 108 107 8
a 108 120 1
a 120 108 1
a 109 121 8
a 121 109 8
a 109 110 6
a 110 109 6
a 110 122 10
a 122 110 10
a 110 111 9
a 111 110 9
a 111 123 8
a 123 111 8
a 111 112 5
a 112 111 5
a 112 124 7
a 124 112 7
a 112 113 6
a 113 112 6
a 113 125 2
a 125 113 2
a 113 114 2
a 114 113 2
a 114 126 9
a 126 114 9
a 114 115 7
a 115 114 7
a 115 127 7
a 127 115 7
a 115 116 9
a 116 115 9
a 116 128 4
a 128 116 4
a 116 117 7
a 117 116 7
a 117 129 6
a 129 117 6
a 117 118 3
a 118 117 3
a 118 130 8
a 130 118 8
a 118 119 6
a 119 118 6
a 119 131 2
a 131 119 2
a 119 120 2
a 120 119 2
a 120 132 1
a 132 120 1
a 121 133 1
a 133 121 1
a 121 122 10
a 122 121 10
a 122 134 4
a 134 122 4
a 122 123 9
a 123 122 9
a 123 135 1
a 135 123 1
a 123 124 4
a 124 123 4
a 124 136 4
a 136 124 4
a 124 125 6
a 125 124 6
a 125 137 4
a 137 125 4
a 125 126 5
a 126 125 5
a 126 138 10
a 138 126 10
a 126 127 7
a 127 126 7
a 127 128 1
a 128 127 1
a 128 140 4
a 140 128 4
a 128 129 9
a 129 128 9
a 129 141 4
a 141 129 4
a 129 130 4
a 130 129 4
a 130 142 7
a 142 130 7
a 130 131 8
a 131 130 8
a 131 143 6
a 143 131 6
a 131 132 3
a 132 131 3
a 132 144 5
a 144 132 5
a 133 134 2
a 134 133 2
a 134 135 2
a 135 134 2
a 135 136 1
a 136 135 1
a 136 137 1
a 137 136 1
a 137 138 9
a 138 137 9
a 140 141 5
a 141 140 5
a 141 142 7
a 142 141 7
a 142 143 5
a 143 142 5
a 143 144 10
a 144 143 10
